FEATURES = {pages,blocks,fileUploads,pageHistory,basicPageAnalytics,advancedPageAnalytics,collaborativeWorkspace,guests,notionSiteDomain,permissionGroups,openTeamSpaces,closeTeamSpaces,privateTeamSpaces,advancedTeamSpacePermissions,syncDatabases,dynamicLinkPreviews,slackIntegration,zapierIntegration,publicApi,basicAutomations,customDatasetAutomations,exportEntireWorkspaceAsHTML,exportEntireWorkspaceAsMarkdown,exportEntireWorkspaceAsCSV,exportEntireWorkspaceAsPDF,samlSso,userProvisioning,advancedWorkspaceSecurityControls,advancedTeamspaceSecurityControls,workspaceAnalytics,granularAdminRoles,auditLog,adminContentSearch,domainManagement,workspaceConsolidation,managedUsersDashboard,managedUsersControls,securityIntegrations,complianceIntegrations,hipaaCompliance,guestInviteRequests,prioritySupport,customerSuccessManager};
USAGE_LIMITS = {guestsLimit,fileUploadsLimit,pageHistoryThreshold,syncDatabasesLimit,rowLimitPerSyncedDatabase};
PLANS = {FREE,PLUS,BUSINESS,ENTERPRISE};
ADDONS = {};

plans_prices = [0.0,8.0,18.0,0.0];
addons_prices = [];

plans_features = array2d(PLANS, FEATURES, [
    % FREE
    1,1,1,0,1,0,1,1,0,1,1,1,0,0,1,1,1,1,1,1,0,1,1,1,1,0,0,0,0,0,0,0,0,0,0,0,0,0,0,0,0,0,0,0,
    % PLUS
    1,1,1,1,1,0,1,1,1,1,1,1,0,0,1,1,1,1,1,1,1,1,1,1,1,0,0,0,0,0,0,0,0,0,0,0,0,0,0,0,0,0,0,0,
    % BUSINESS
    1,1,1,1,1,1,1,1,1,1,1,1,1,0,1,1,1,1,1,1,1,1,1,1,1,1,0,0,0,0,0,0,0,0,0,0,0,0,0,0,0,0,0,0,
    % ENTERPRISE
    1,1,1,1,1,1,1,1,1,1,1,1,1,1,1,1,1,1,1,1,1,1,1,1,1,1,1,1,1,1,1,1,1,1,1,1,1,1,1,1,1,1,1,1
]);
plans_usage_limits = array2d(PLANS, USAGE_LIMITS, [
    % FREE
    10,5,7,1,100,
    % PLUS
    100,.inf,30,.inf,20000,
    % BUSINESS
    250,.inf,90,.inf,20000,
    % ENTERPRISE
    250,.inf,.inf,.inf,20000
]);

linked_features = array2d(USAGE_LIMITS, FEATURES, [
    % guestsLimit
    0,0,0,0,0,0,0,1,0,0,0,0,0,0,0,0,0,0,0,0,0,0,0,0,0,0,0,0,0,0,0,0,0,0,0,0,0,0,0,0,0,0,0,0,
    % fileUploadsLimit
    0,0,1,0,0,0,0,0,0,0,0,0,0,0,0,0,0,0,0,0,0,0,0,0,0,0,0,0,0,0,0,0,0,0,0,0,0,0,0,0,0,0,0,0,
    % pageHistoryThreshold
    0,0,0,1,0,0,0,0,0,0,0,0,0,0,0,0,0,0,0,0,0,0,0,0,0,0,0,0,0,0,0,0,0,0,0,0,0,0,0,0,0,0,0,0,
    % syncDatabasesLimit
    0,0,0,0,0,0,0,0,0,0,0,0,0,0,1,0,0,0,0,0,0,0,0,0,0,0,0,0,0,0,0,0,0,0,0,0,0,0,0,0,0,0,0,0,
    % rowLimitPerSyncedDatabase
    0,0,0,0,0,0,0,0,0,0,0,0,0,0,1,0,0,0,0,0,0,0,0,0,0,0,0,0,0,0,0,0,0,0,0,0,0,0,0,0,0,0,0,0
]);

addons_features = array2d(ADDONS, FEATURES, [
]);
addons_usage_limits = array2d(ADDONS, USAGE_LIMITS, [
]);
addons_usage_limits_extensions = array2d(ADDONS, USAGE_LIMITS, [
]);
addons_available_for = array2d(ADDONS, PLANS, [
]);

addons_depends_on = array2d(ADDONS, ADDONS, [
]);